(declare-const a Real)
(declare-const b Real)
(declare-const c Real)
(assert (= (* a b c) 1))
(assert (> a 0))
(assert (> b 0))
(assert (> c 0))
(assert (not (<= (+ (/ 3 2) (* -1 (pow (+ (pow (* a b) (* 3 (pow 2 -1))) (pow (* a c) (* 3 (pow 2 -1))) (pow (* b c) (* 3 (pow 2 -1)))) 2) (pow (+ (* a b c (+ a b)) (* a b c (+ a c)) (* a b c (+ b c))) -1))) 0)))
(check-sat)
(get-model)
(exit)